set VV := 0 1 2 3 4 ;
set VS := 0 1 2 3 4 5 6 7 8 9 10 11 12 13 ;
param cv := 
0 24
1 17
2 25
3 13
4 23
;
param cs := 
0 37
1 34
2 32
3 38
4 34
5 39
6 31
7 34
8 38
9 20
10 34
11 22
12 39
13 32
;
param bv:	 0 1 2 3 4 := 
		0 0 14 0 20 0 
		1 0 0 19 0 0 
		2 0 0 0 0 24 
		3 0 0 0 0 0 
		4 0 0 0 0 0 
;
param bs:	 0 1 2 3 4 5 6 7 8 9 10 11 12 13 := 
		0 0 0 0 0 0 23 0 0 0 0 0 0 0 0 
		1 0 0 0 0 0 0 0 0 0 0 33 34 0 0 
		2 0 0 0 0 0 0 36 0 0 0 0 0 31 33 
		3 0 0 0 0 0 0 0 0 0 33 0 30 0 40 
		4 0 0 0 0 0 0 0 32 0 38 0 0 0 0 
		5 23 0 0 0 0 0 27 0 0 0 0 0 0 0 
		6 0 0 36 0 0 27 0 36 0 0 0 0 0 0 
		7 0 0 0 0 32 0 36 0 28 0 0 0 0 0 
		8 0 0 0 0 0 0 0 28 0 0 23 0 30 0 
		9 0 0 0 33 38 0 0 0 0 0 0 40 0 0 
		10 0 33 0 0 0 0 0 0 23 0 0 0 0 0 
		11 0 34 0 30 0 0 0 0 0 40 0 0 24 0 
		12 0 0 31 0 0 0 0 0 30 0 0 24 0 0 
		13 0 0 33 40 0 0 0 0 0 0 0 0 0 0 
;
